Matriz resultante: (n)*(w+1):

0 0 0 0 0 0 0 0 0 0 0 0 0 0 0 0 0 0 0 0 0 0 0 0 0 0 0 0 0 0 0 0 0 0 0 0 0 0 0 0 0 0 0 0 0 0 0 0 0 0 0 0 0 0 0 0 0 0 0 0 0 0 0 0 0 0 0 0 0 0 0 0 0 0 0 0 0 0 0 0 0 0 0 0 0 0 0 0 0 0 0 0 0 0 0 0 0 0 0 0 0 0 0 0 0 0 0 0 0 0 0 0 0 0 0 0 0 0 0 0 0 0 0 0 0 0 0 0 0 0 0 0 0 0 0 0 0 0 0 0 0 0 0 0 0 0 
0 0 0 0 0 0 0 0 0 0 0 0 0 0 0 0 0 0 0 0 0 0 0 0 0 0 0 0 0 0 0 0 0 0 0 0 0 0 0 0 0 0 0 0 0 0 0 0 0 0 0 0 0 0 0 0 0 0 0 0 0 0 0 0 0 0 0 0 0 0 0 0 0 0 0 0 0 0 0 0 0 0 0 0 0 0 0 0 0 0 0 0 0 0 0 0 0 0 0 0 0 0 0 0 0 0 0 0 0 0 0 0 0 0 0 0 0 0 0 0 0 0 0 0 0 0 0 0 0 0 0 0 0 0 0 0 0 0 0 0 0 0 0 0 0 0 
0 0 0 0 0 0 0 0 0 0 0 0 0 0 78 78 78 78 78 78 78 78 78 78 78 78 78 78 78 78 78 78 78 78 78 78 78 78 78 78 78 78 78 78 78 78 78 78 78 78 78 78 78 78 78 78 78 78 78 78 78 78 78 78 78 78 78 78 78 78 78 78 78 78 78 78 78 78 78 78 78 78 78 78 78 78 78 78 78 78 78 78 78 78 78 78 78 78 78 78 78 78 78 78 78 78 78 78 78 78 78 78 78 78 78 78 78 78 78 78 78 78 78 78 78 78 78 78 78 78 78 78 78 78 78 78 78 78 78 78 78 78 78 78 78 78 
0 0 0 0 0 0 0 0 0 0 0 0 0 0 78 78 78 78 78 78 78 78 78 78 78 78 78 78 119 119 119 119 119 119 119 119 119 119 119 119 119 119 119 119 119 119 119 119 119 119 119 119 119 119 119 119 119 119 119 119 119 119 119 119 119 119 119 119 119 119 119 119 119 119 119 119 119 119 119 119 119 119 119 119 119 119 119 119 119 119 119 119 119 119 119 119 119 119 119 119 119 119 119 119 119 119 119 119 119 119 119 119 119 119 119 119 119 119 119 119 119 119 119 119 119 119 119 119 119 119 119 119 119 119 119 119 119 119 119 119 119 119 119 119 119 119 
0 0 0 0 0 0 0 0 0 0 0 0 0 0 78 78 78 78 78 78 78 78 78 78 78 78 78 78 119 119 119 119 119 119 119 119 119 119 119 119 119 119 119 119 119 119 119 119 119 119 119 119 119 119 119 119 119 119 119 119 119 119 119 119 119 119 119 119 119 119 119 119 119 119 119 119 119 119 119 119 119 119 119 119 119 119 119 119 119 119 119 119 119 119 119 119 119 119 119 119 119 119 133 133 133 133 133 133 133 133 133 133 133 133 133 133 133 133 133 133 133 133 133 133 133 133 133 133 133 133 133 133 133 133 133 133 133 133 133 133 133 133 133 133 133 133 
0 0 0 0 0 0 0 0 0 0 0 0 0 0 78 78 78 78 78 78 78 78 78 78 78 78 78 78 119 119 119 119 119 119 119 119 119 119 119 119 119 119 119 119 119 119 119 119 119 119 119 119 119 119 119 119 119 119 119 119 119 119 119 119 119 119 119 119 119 119 119 119 119 119 119 119 119 119 119 119 119 119 119 119 119 119 119 119 119 119 119 119 119 119 119 119 119 119 119 119 119 119 133 133 133 133 133 133 133 133 133 133 133 133 133 133 133 133 133 133 133 133 133 133 133 133 133 133 133 133 133 133 133 133 133 133 133 133 133 133 133 133 133 133 133 133 
0 0 0 0 0 0 0 0 0 0 0 0 0 0 78 78 78 78 78 78 78 78 78 78 78 78 78 78 119 119 119 119 119 119 119 119 119 119 119 119 119 119 119 119 119 119 119 119 119 119 119 119 119 119 119 119 119 119 119 119 119 119 119 119 119 119 119 119 119 119 119 119 119 119 119 119 119 119 119 119 119 119 134 134 134 134 134 134 134 134 134 134 134 134 134 134 134 134 134 134 134 134 134 134 134 134 134 134 134 134 134 134 134 134 134 134 134 134 134 134 134 134 134 134 134 134 134 134 134 134 134 134 134 134 134 134 134 134 134 134 134 134 134 134 134 134 
0 0 0 0 0 0 0 0 0 0 0 0 0 0 78 78 78 78 78 78 78 78 78 78 78 78 78 78 119 119 119 119 119 119 119 119 119 119 119 119 119 119 119 119 119 119 119 119 119 119 119 119 119 119 119 119 119 119 119 119 119 119 119 119 119 119 119 119 119 119 119 119 119 119 119 119 119 119 119 119 119 119 134 134 134 134 134 134 134 134 134 134 134 149 149 149 149 149 149 149 149 149 149 149 149 149 149 149 149 149 149 149 149 149 149 149 149 149 149 149 149 149 149 149 149 149 149 149 149 149 149 149 149 149 149 149 149 149 149 149 149 149 149 149 149 149 
0 0 0 0 0 0 0 0 0 0 0 0 0 0 78 78 78 78 78 78 78 78 78 78 78 78 78 78 119 119 119 119 119 119 119 119 119 119 119 119 119 119 119 119 119 119 119 119 119 119 119 119 119 119 119 119 119 119 119 119 119 119 119 119 119 119 119 119 119 119 119 119 119 119 119 133 133 133 133 133 133 133 134 134 134 134 134 134 134 134 134 134 134 149 149 149 149 149 149 149 149 149 149 149 149 149 149 149 149 149 149 149 149 149 149 149 149 149 149 149 149 149 149 149 149 149 149 149 149 149 149 149 149 149 149 149 149 149 149 149 163 163 163 163 163 163 
0 0 0 0 0 0 0 0 0 0 0 0 0 0 78 78 78 78 78 78 78 78 78 78 78 78 78 78 119 119 119 119 119 119 119 119 119 119 119 119 119 119 119 119 119 119 119 119 119 119 119 119 119 119 119 119 119 119 119 119 119 119 119 119 119 119 119 119 119 119 119 119 119 119 119 133 133 133 133 133 133 133 134 134 134 134 134 134 134 134 134 134 134 149 149 149 149 149 149 149 149 149 149 149 149 149 149 149 149 149 149 149 149 177 177 177 177 177 177 177 177 177 177 177 177 177 177 177 177 177 177 177 177 177 177 177 177 177 177 177 177 177 177 177 177 177 
0 0 0 0 0 0 0 0 0 0 0 0 0 0 78 78 78 78 78 78 78 78 78 78 78 78 78 78 119 119 119 119 119 119 119 119 119 119 119 119 119 119 119 119 119 119 119 119 119 119 119 119 119 119 119 119 119 119 119 119 119 119 119 119 119 119 119 119 119 119 119 119 119 119 119 133 133 133 133 133 133 133 134 134 134 134 134 134 134 134 134 134 134 149 149 149 149 149 149 153 153 153 153 153 153 153 153 153 153 153 153 153 153 194 194 194 194 194 194 194 194 194 194 194 194 194 194 194 194 194 194 194 194 194 194 194 194 194 194 194 194 194 194 194 194 194 
0 0 0 0 0 0 0 0 0 0 0 0 0 0 78 78 78 78 78 78 78 78 78 78 78 78 78 78 119 119 119 119 119 119 119 119 119 119 119 119 119 119 119 119 119 119 119 119 119 119 119 119 119 119 119 119 119 119 119 119 119 119 119 119 119 119 119 119 119 119 119 119 119 119 119 133 133 133 133 133 133 133 134 134 134 134 134 134 134 134 134 134 134 149 149 149 149 149 149 173 173 173 173 173 173 173 173 173 173 173 173 173 173 214 214 214 214 214 214 214 214 214 214 214 214 214 214 214 214 214 214 214 214 214 214 214 214 214 214 214 214 214 214 214 214 214 
0 0 0 0 0 0 0 0 0 0 0 0 0 0 78 78 78 78 78 78 78 78 78 78 78 78 78 78 119 119 119 119 119 119 119 119 119 119 119 119 119 119 119 119 119 119 119 119 119 119 119 119 119 119 119 119 119 119 119 119 119 119 119 119 119 119 119 119 119 119 119 119 119 119 119 133 133 133 133 133 133 133 134 134 134 134 134 134 134 134 134 134 134 149 149 149 149 154 154 173 173 173 173 173 173 173 173 173 173 173 173 173 173 214 214 214 214 214 214 214 214 214 214 214 214 214 214 214 214 214 214 214 214 214 214 214 214 214 214 214 214 214 214 214 214 214 
0 0 0 0 0 0 0 0 0 0 0 0 0 0 78 78 78 78 78 78 78 78 78 78 78 78 78 78 119 119 119 119 119 119 119 119 119 119 119 119 119 119 119 119 119 119 119 119 119 119 119 119 119 119 119 119 119 119 119 119 119 119 119 119 119 119 119 119 119 119 119 119 119 119 119 133 133 133 133 133 133 133 134 134 134 134 134 134 134 134 134 134 134 149 149 149 149 154 154 173 173 173 173 173 173 173 173 173 173 173 173 173 173 214 214 214 214 214 214 214 214 214 214 214 214 214 214 214 214 214 214 214 214 214 214 214 214 214 214 214 214 214 214 214 214 214 
0 0 0 0 0 0 0 0 0 0 0 0 0 0 78 78 78 78 78 78 78 78 78 78 78 78 78 78 119 119 119 119 119 119 119 119 119 119 119 119 119 119 119 119 119 119 119 119 119 119 119 119 119 119 119 119 119 119 119 119 119 119 119 119 119 119 119 119 119 119 119 119 119 119 119 133 133 133 133 133 133 133 134 134 134 134 134 134 134 134 134 134 134 149 149 149 149 154 154 173 173 173 173 173 173 173 173 173 173 173 173 173 173 214 214 214 214 214 214 214 214 214 214 214 214 214 214 214 214 214 214 214 214 214 214 214 214 214 214 214 214 214 214 214 214 214 
0 0 0 0 0 0 0 0 0 0 0 0 0 0 78 78 78 78 78 78 78 78 78 78 78 78 78 78 119 119 119 119 119 119 119 119 119 119 119 119 119 119 119 119 119 119 119 119 119 119 119 119 119 119 119 119 119 119 119 119 119 119 119 119 119 119 119 119 119 119 119 119 119 119 119 133 133 133 133 133 133 133 134 134 134 134 134 134 134 134 134 134 134 149 149 149 149 154 154 173 173 173 173 173 173 173 173 173 173 173 173 173 173 214 214 214 214 214 214 214 214 214 214 214 214 214 214 214 214 214 214 214 214 214 214 214 214 214 214 214 214 214 214 214 214 214 
0 0 0 0 0 0 0 0 0 0 0 0 0 0 78 78 78 78 78 78 78 78 78 78 78 78 78 78 119 119 119 119 119 119 119 119 119 119 119 119 119 119 119 119 119 119 119 119 119 119 119 119 119 119 119 119 119 119 119 119 119 119 119 119 119 119 119 119 119 119 119 119 119 119 119 133 133 133 133 133 133 133 134 134 134 134 134 134 134 134 134 134 134 149 149 149 149 154 154 173 173 173 173 173 173 173 173 173 173 173 173 173 173 214 214 214 214 214 214 214 214 214 214 214 214 214 214 214 214 214 214 214 214 214 214 214 214 214 214 214 214 214 214 214 214 214 
0 0 0 0 0 0 0 0 0 0 0 0 0 0 78 78 78 78 78 78 78 78 78 78 78 78 78 78 119 119 119 119 119 119 119 119 119 119 119 119 119 119 119 119 119 119 119 119 119 119 119 119 119 119 119 119 119 119 119 119 119 119 119 119 119 119 119 119 119 119 119 119 119 119 119 133 133 133 133 133 133 133 134 134 134 134 134 134 134 134 134 134 134 149 149 149 149 154 154 173 173 173 173 173 173 173 173 173 173 173 173 173 173 214 214 214 214 214 214 214 214 214 214 214 214 214 214 214 214 214 214 214 214 214 214 214 214 214 214 214 214 214 214 214 214 214 
0 0 0 0 0 0 0 0 0 0 0 0 0 0 78 78 78 78 78 78 78 78 78 78 78 78 78 78 119 119 119 119 119 119 119 119 119 119 119 119 119 119 119 119 119 119 119 119 119 119 119 119 119 119 119 119 119 119 119 119 119 119 119 119 119 119 119 119 119 119 119 119 119 119 119 133 133 133 133 133 133 133 134 134 134 134 134 134 134 134 134 134 134 149 149 149 149 154 154 173 173 173 173 173 173 173 173 173 173 173 173 173 173 214 214 214 214 214 214 214 214 214 214 214 214 214 214 214 214 214 214 214 214 214 214 214 214 214 214 214 214 214 214 214 214 214 
0 0 0 0 0 0 0 0 0 0 0 0 0 0 78 78 78 78 78 78 78 78 78 78 78 78 78 78 119 119 119 119 119 119 119 119 119 119 119 119 119 119 119 119 119 119 119 119 119 119 119 119 119 119 119 119 119 119 119 119 119 119 119 119 119 147 147 147 147 147 147 147 147 147 147 147 147 147 147 225 225 225 225 225 225 225 225 225 225 225 225 225 225 266 266 266 266 266 266 266 266 266 266 266 266 266 266 266 266 266 266 266 266 266 266 266 266 266 266 266 266 266 266 266 266 266 266 266 266 266 266 266 266 266 266 266 266 266 266 266 280 280 280 280 280 280 
0 0 0 0 0 0 0 0 0 0 0 0 0 0 78 78 78 78 78 78 78 78 78 78 78 78 78 78 119 119 119 119 119 119 119 119 119 119 119 119 119 119 119 119 119 119 119 119 119 119 119 119 119 119 119 119 119 119 119 119 119 119 119 119 119 147 147 147 147 147 147 147 147 147 147 147 147 147 147 225 225 225 225 225 225 225 225 225 225 225 225 225 225 266 266 266 266 266 266 266 266 266 266 266 266 266 266 266 266 266 266 266 266 266 266 266 266 266 266 266 266 266 266 266 266 266 266 266 266 266 266 266 266 266 266 266 266 266 266 266 280 280 280 280 280 280 
0 0 0 0 0 0 0 0 0 0 0 0 0 0 78 78 78 78 78 78 78 78 78 78 78 78 78 78 119 119 119 119 119 119 119 119 119 119 119 119 119 119 119 119 119 119 119 119 119 119 119 119 119 119 119 119 119 119 119 119 119 119 119 119 119 147 147 147 147 147 147 147 147 147 147 147 147 147 147 225 225 225 225 225 225 225 225 225 225 225 225 225 225 266 266 266 266 266 266 266 266 266 266 266 266 266 266 266 266 266 266 266 266 266 266 266 266 266 266 266 266 266 266 266 266 266 266 266 266 266 266 266 266 266 266 266 266 266 266 266 280 280 280 280 280 280 
0 0 0 0 0 0 0 0 0 0 0 0 0 0 78 78 78 78 78 78 78 78 78 78 78 78 78 78 119 119 119 119 119 119 119 119 119 119 119 119 119 119 119 119 119 119 119 119 119 119 119 119 119 119 119 119 119 119 119 119 119 119 119 119 119 147 147 147 147 147 147 147 147 147 147 147 147 147 147 225 225 225 225 225 225 225 225 225 225 225 225 225 225 266 266 266 266 266 266 266 266 266 266 266 266 266 266 266 266 266 266 266 266 266 266 266 266 266 266 266 266 266 266 266 266 266 266 266 266 266 266 266 266 266 266 266 266 266 266 266 280 280 280 280 280 280 
0 0 0 0 0 0 0 0 0 0 0 0 0 0 78 78 78 78 78 78 78 78 78 78 78 78 78 78 119 119 119 119 119 119 119 119 119 119 119 119 119 119 119 119 119 119 119 119 119 119 119 119 119 119 119 119 119 119 119 119 119 119 119 119 119 147 147 147 147 147 147 147 147 147 147 147 147 147 147 225 225 225 225 225 225 225 225 225 225 225 225 225 225 266 266 266 266 266 266 266 266 266 266 266 266 266 266 266 266 266 266 266 266 266 266 266 266 266 266 266 266 266 266 266 266 266 266 266 266 266 266 266 266 266 266 266 266 266 266 266 280 280 280 280 280 280 
0 0 0 0 0 0 0 0 0 0 0 0 0 0 78 78 78 78 78 78 78 78 78 78 78 78 78 78 119 119 119 119 119 119 119 119 119 119 119 119 119 119 119 119 119 119 119 119 119 119 119 119 119 119 119 119 119 119 119 119 119 119 119 119 119 147 147 147 147 147 147 147 147 147 147 147 147 147 147 225 225 225 225 225 225 225 225 225 225 225 225 225 225 266 266 266 266 266 266 266 266 266 266 266 266 266 266 266 266 266 266 266 266 266 266 266 266 266 266 266 266 266 266 266 266 266 266 266 266 266 266 266 266 266 266 266 266 266 266 266 280 280 280 280 280 280 

Maximo beneficio encontrado:
280

Objetos usados:
Objeto #20, Objeto #9, Objeto #4, Objeto #3, Execution time in nanoseconds  : 57381100
Execution time in milliseconds : 57
